c instance by G2
c solution = 1100110111100
c Known solution cost is 577 
p cnf 13 30
w 23 5 14 25 97 11 65 58 52 4 44 83 96
-11 -10 2 0
-2 10 13 0
1 -8 -2 0
7 -1 -13 0
7 5 12 0
12 5 -4 0
7 4 2 0
-9 11 4 0
-10 9 3 0
-7 -10 12 0
-11 -2 -12 0
7 12 -3 0
-9 11 2 0
-13 -7 -4 0
1 -8 -12 0
5 -8 -7 0
1 -10 -12 0
-2 11 7 0
-3 -2 -12 0
5 -7 10 0
9 3 -12 0
-12 7 4 0
-4 -7 1 0
7 -2 8 0
-3 -2 -4 0
-5 6 4 0
8 12 -3 0
-1 -13 -6 0
-2 10 13 0
-4 7 -1 0
